benchmarks/VRPTW/TSPTW/ins/n150w60.002.txt
!! n150w60.002    56.44 971


CUST NO.   XCOORD.   YCOORD.    DEMAND   READY TIME   DUE DATE   SERVICE TIME


    1      33.00      21.00       0.00       0.00     983.00       0.00
    2      12.00      29.00       0.00     359.00     382.00       0.00
    3      19.00      29.00       0.00     179.00     242.00       0.00
    4      31.00      43.00       0.00     174.00     183.00       0.00
    5      42.00       1.00       0.00      52.00     131.00       0.00
    6      34.00      30.00       0.00     460.00     525.00       0.00
    7      15.00      37.00       0.00     362.00     390.00       0.00
    8       9.00      42.00       0.00     400.00     467.00       0.00
    9      11.00      32.00       0.00     360.00     410.00       0.00
   10       9.00      19.00       0.00     511.00     573.00       0.00
   11       8.00      18.00       0.00     331.00     370.00       0.00
   12      39.00      14.00       0.00       0.00      90.00       0.00
   13      46.00       7.00       0.00      32.00      61.00       0.00
   14       1.00      19.00       0.00     558.00     623.00       0.00
   15      23.00      43.00       0.00     612.00     661.00       0.00
   16      43.00      29.00       0.00     706.00     769.00       0.00
   17      25.00      33.00       0.00      83.00     159.00       0.00
   18      18.00       8.00       0.00     247.00     292.00       0.00
   19       8.00      26.00       0.00     330.00     382.00       0.00
   20      39.00       1.00       0.00      26.00      90.00       0.00
   21      43.00      10.00       0.00     743.00     813.00       0.00
   22      44.00      11.00       0.00      41.00      94.00       0.00
   23      38.00      35.00       0.00     142.00     172.00       0.00
   24       9.00      32.00       0.00     806.00     823.00       0.00
   25      38.00      40.00       0.00     130.00     206.00       0.00
   26       8.00       2.00       0.00     278.00     316.00       0.00
   27      26.00      41.00       0.00     140.00     226.00       0.00
   28      26.00      25.00       0.00     205.00     255.00       0.00
   29      23.00       3.00       0.00     752.00     820.00       0.00
   30       9.00      24.00       0.00     340.00     376.00       0.00
   31      17.00      19.00       0.00     220.00     269.00       0.00
   32      19.00      15.00       0.00     182.00     245.00       0.00
   33       2.00      46.00       0.00     420.00     443.00       0.00
   34      23.00      31.00       0.00     464.00     546.00       0.00
   35      30.00      31.00       0.00     107.00     174.00       0.00
   36      31.00      20.00       0.00       0.00      23.00       0.00
   37      36.00      44.00       0.00     652.00     693.00       0.00
   38      14.00       0.00       0.00     268.00     336.00       0.00
   39      48.00      18.00       0.00       8.00      74.00       0.00
   40      23.00      10.00       0.00     232.00     257.00       0.00
   41      50.00      37.00       0.00     657.00     707.00       0.00
   42      30.00      10.00       0.00      88.00     124.00       0.00
   43      42.00      17.00       0.00       0.00      36.00       0.00
   44      20.00      48.00       0.00     602.00     690.00       0.00
   45      33.00      19.00       0.00       0.00      47.00       0.00
   46      48.00      35.00       0.00     674.00     754.00       0.00
   47      47.00      41.00       0.00     651.00     722.00       0.00
   48      50.00      41.00       0.00     636.00     723.00       0.00
   49      37.00      16.00       0.00      76.00     123.00       0.00
   50      11.00      14.00       0.00     477.00     539.00       0.00
   51      31.00      36.00       0.00     112.00     155.00       0.00
   52      31.00      22.00       0.00       0.00      33.00       0.00
   53      12.00      13.00       0.00     313.00     340.00       0.00
   54       8.00      37.00       0.00     393.00     415.00       0.00
   55       1.00      48.00       0.00     376.00     468.00       0.00
   56      49.00      41.00       0.00     680.00     717.00       0.00
   57      41.00      18.00       0.00       0.00      77.00       0.00
   58       3.00      43.00       0.00     365.00     472.00       0.00
   59      11.00      14.00       0.00     277.00     374.00       0.00
   60      25.00      26.00       0.00     165.00     251.00       0.00
   61      13.00      29.00       0.00     343.00     377.00       0.00
   62      48.00       1.00       0.00      36.00      86.00       0.00
   63       8.00      22.00       0.00     315.00     347.00       0.00
   64      37.00      19.00       0.00       0.00      28.00       0.00
   65      49.00      31.00       0.00     736.00     761.00       0.00
   66      50.00      42.00       0.00     632.00     726.00       0.00
   67      29.00      35.00       0.00      90.00     158.00       0.00
   68      24.00      25.00       0.00     203.00     234.00       0.00
   69       9.00       5.00       0.00     239.00     335.00       0.00
   70      22.00      26.00       0.00     186.00     257.00       0.00
   71      28.00      38.00       0.00      91.00     192.00       0.00
   72      42.00      32.00       0.00     120.00     185.00       0.00
   73       5.00      11.00       0.00     307.00     344.00       0.00
   74      38.00      19.00       0.00       9.00      69.00       0.00
   75      13.00       6.00       0.00     235.00     295.00       0.00
   76       8.00      46.00       0.00     400.00     487.00       0.00
   77       1.00      35.00       0.00     398.00     434.00       0.00
   78      25.00      36.00       0.00     105.00     150.00       0.00
   79      17.00      30.00       0.00     412.00     471.00       0.00
   80      43.00       2.00       0.00     753.00     817.00       0.00
   81       6.00       7.00       0.00     240.00     291.00       0.00
   82      46.00      15.00       0.00      24.00      76.00       0.00
   83      15.00      29.00       0.00     332.00     418.00       0.00
   84       6.00      36.00       0.00     376.00     463.00       0.00
   85      13.00      37.00       0.00     354.00     399.00       0.00
   86      39.00      44.00       0.00     135.00     210.00       0.00
   87      32.00      10.00       0.00      55.00     115.00       0.00
   88      20.00      33.00       0.00     193.00     256.00       0.00
   89      37.00      23.00       0.00       0.00      70.00       0.00
   90      35.00      22.00       0.00       0.00      12.00       0.00
   91       2.00      19.00       0.00     536.00     565.00       0.00
   92      44.00      38.00       0.00     689.00     704.00       0.00
   93      34.00      21.00       0.00       0.00      23.00       0.00
   94      28.00      25.00       0.00     191.00     239.00       0.00
   95      15.00      38.00       0.00     450.00     468.00       0.00
   96      41.00      35.00       0.00     112.00     217.00       0.00
   97      25.00      41.00       0.00     154.00     224.00       0.00
   98      42.00       2.00       0.00      66.00     120.00       0.00
   99       5.00      22.00       0.00     307.00     380.00       0.00
  100      34.00       4.00       0.00      79.00      91.00       0.00
  101      11.00       8.00       0.00     243.00     315.00       0.00
  102      29.00      32.00       0.00     471.00     490.00       0.00
  103      41.00      39.00       0.00     108.00     198.00       0.00
  104      11.00      36.00       0.00     374.00     422.00       0.00
  105      26.00      39.00       0.00     173.00     205.00       0.00
  106      26.00       4.00       0.00     221.00     310.00       0.00
  107       5.00      35.00       0.00     342.00     402.00       0.00
  108      21.00      22.00       0.00     203.00     241.00       0.00
  109      45.00      49.00       0.00     625.00     719.00       0.00
  110      46.00      16.00       0.00       0.00      92.00       0.00
  111      14.00      22.00       0.00     559.00     603.00       0.00
  112      13.00       7.00       0.00     520.00     568.00       0.00
  113      22.00       9.00       0.00     200.00     261.00       0.00
  114      13.00      37.00       0.00     336.00     439.00       0.00
  115      37.00      24.00       0.00      93.00     133.00       0.00
  116      25.00      23.00       0.00     174.00     239.00       0.00
  117      35.00      43.00       0.00     173.00     217.00       0.00
  118      46.00      46.00       0.00     884.00     955.00       0.00
  119       6.00       2.00       0.00     259.00     362.00       0.00
  120       4.00      26.00       0.00     341.00     384.00       0.00
  121      13.00      26.00       0.00     357.00     408.00       0.00
  122      34.00      34.00       0.00     123.00     169.00       0.00
  123      23.00      43.00       0.00     172.00     228.00       0.00
  124      36.00      11.00       0.00     833.00     863.00       0.00
  125      18.00      10.00       0.00     502.00     569.00       0.00
  126       1.00      27.00       0.00     573.00     594.00       0.00
  127       3.00      15.00       0.00     528.00     596.00       0.00
  128       6.00      48.00       0.00     376.00     441.00       0.00
  129      11.00      17.00       0.00     326.00     366.00       0.00
  130      24.00      24.00       0.00     481.00     564.00       0.00
  131      23.00      50.00       0.00     881.00     911.00       0.00
  132       8.00      26.00       0.00     318.00     411.00       0.00
  133      17.00       2.00       0.00     232.00     276.00       0.00
  134      32.00      15.00       0.00      79.00     119.00       0.00
  135       0.00      36.00       0.00     409.00     456.00       0.00
  136       0.00      27.00       0.00     589.00     663.00       0.00
  137      35.00      29.00       0.00     115.00     168.00       0.00
  138      13.00      49.00       0.00     411.00     484.00       0.00
  139      27.00      32.00       0.00      89.00     171.00       0.00
  140      50.00      13.00       0.00      43.00      92.00       0.00
  141      33.00      27.00       0.00     104.00     129.00       0.00
  142       3.00      41.00       0.00     576.00     670.00       0.00
  143      43.00       2.00       0.00      46.00     101.00       0.00
  144      24.00      30.00       0.00     445.00     479.00       0.00
  145       3.00       0.00       0.00     259.00     312.00       0.00
  146      23.00      33.00       0.00     192.00     256.00       0.00
  147      49.00      18.00       0.00     690.00     752.00       0.00
  148      23.00      40.00       0.00     158.00     221.00       0.00
  149      39.00      19.00       0.00       0.00      56.00       0.00
  150      13.00      29.00       0.00     351.00     394.00       0.00
  151      22.00      28.00       0.00     879.00     963.00       0.00
  999       0.00       0.00       0.00       0.00       0.00       0.00
