benchmarks/VRPTW/TSPTW/solution/n150w60.002.txt.solution
1 52 36 45 93 90 89 64 74 149 57 43 12 22 82 110 39 140 13 62 143 5 98 20 100 87 42 134 49 115 141 137 35 139 17 78 67 51 122 23 72 96 103 25 86 117 4 71 105 27 97 123 148 146 88 3 70 68 60 28 94 116 108 31 32 113 40 106 18 75 133 38 26 119 145 81 69 101 73 59 53 129 11 63 99 120 132 19 30 121 83 61 150 2 9 7 114 85 104 54 84 107 77 135 58 33 55 128 76 138 8 95 79 34 144 102 6 130 125 112 50 127 14 91 10 111 126 136 142 44 15 37 109 66 48 56 47 92 41 46 16 65 147 21 80 29 24 124 118 131 151 
782
